\ This file has been generated by DOcplex
\ ENCODING=ISO-8859-1
\Problem name: random_problem.lp

Minimize
 obj: 8 x0 + 5 x1 - 4 x2 + 6 x3 - 5 x4 + 8 x5 - 3 x6 - 5 x7 + 3 x9 + 6 x10 + [
      4 x0*x2 - 6 x0*x3 - 20 x0*x5 - 18 x0*x7 - 4 x0*x8 - 14 x1*x2 + 14 x1*x3
      - 14 x1*x6 + 6 x1*x8 - 6 x1*x10 + 16 x2*x3 + 6 x2*x9 - 2 x2*x10 + 20 x3*x4
      + 18 x3*x10 + 14 x4*x5 - 6 x4*x7 + 12 x4*x8 + 12 x4*x9 - 18 x5*x7
      + 14 x5*x8 + 18 x5*x9 + 14 x6*x7 + 16 x6*x8 + 2 x6*x9 - 12 x6*x10
      + 10 x7*x9 ]/2
Subject To
 c0: x2 - x3 - x4 + 2 x6 - x9 = 1
 c1: 2 x0 + x3 - x5 - 2 x7 - x10 = 1

Bounds
 0 <= x0 <= 1
 0 <= x1 <= 1
 0 <= x2 <= 1
 0 <= x3 <= 1
 0 <= x4 <= 1
 0 <= x5 <= 1
 0 <= x6 <= 1
 0 <= x7 <= 1
 0 <= x8 <= 1
 0 <= x9 <= 1
 0 <= x10 <= 1

Binaries
 x0 x1 x2 x3 x4 x5 x6 x7 x8 x9 x10
End
